p tdp 63 62
51 14
17 2
3 22
15 61
28 60
11 52
3 53
18 47
37 9
49 20
42 38
6 41
21 45
30 29
39 61
14 12
35 12
26 11
25 41
34 23
58 48
7 27
4 54
25 49
34 4
40 63
13 26
14 33
39 21
19 56
1 55
46 24
5 25
38 62
18 45
8 5
55 13
1 16
61 29
42 41
26 2
48 59
8 37
53 15
58 55
28 33
57 31
19 28
43 34
43 10
40 36
27 19
32 5
48 44
16 62
53 34
61 59
36 44
29 50
12 24
56 8
60 57
